Code 1634
Dimension, Median
   128       16
 Facility, Client, Transportation Cost
     1        1           1
     1        2           0
     1        3           0
     1        5           4
     1        9           3
     1       17           3
     1       33           4
     1       65           3
     2        1           4
     2        2           0
     2        4           2
     2        6           1
     2       10           4
     2       18           0
     2       34           1
     2       66           1
     3        1           1
     3        3           1
     3        4           3
     3        7           2
     3       11           2
     3       19           1
     3       35           1
     3       67           1
     4        2           4
     4        3           4
     4        4           1
     4        8           2
     4       12           3
     4       20           2
     4       36           0
     4       68           2
     5        1           2
     5        5           0
     5        6           3
     5        7           0
     5       13           3
     5       21           4
     5       37           4
     5       69           3
     6        2           3
     6        5           3
     6        6           3
     6        8           0
     6       14           2
     6       22           3
     6       38           1
     6       70           3
     7        3           4
     7        5           1
     7        7           4
     7        8           0
     7       15           2
     7       23           0
     7       39           1
     7       71           1
     8        4           1
     8        6           4
     8        7           0
     8        8           1
     8       16           2
     8       24           2
     8       40           4
     8       72           3
     9        1           3
     9        9           4
     9       10           3
     9       11           1
     9       13           0
     9       25           0
     9       41           2
     9       73           0
    10        2           4
    10        9           2
    10       10           2
    10       12           3
    10       14           0
    10       26           2
    10       42           3
    10       74           0
    11        3           4
    11        9           0
    11       11           4
    11       12           3
    11       15           0
    11       27           3
    11       43           2
    11       75           0
    12        4           2
    12       10           0
    12       11           4
    12       12           3
    12       16           0
    12       28           3
    12       44           2
    12       76           1
    13        5           0
    13        9           2
    13       13           1
    13       14           2
    13       15           4
    13       29           0
    13       45           1
    13       77           3
    14        6           4
    14       10           1
    14       13           2
    14       14           1
    14       16           4
    14       30           0
    14       46           0
    14       78           3
    15        7           1
    15       11           2
    15       13           1
    15       15           4
    15       16           1
    15       31           2
    15       47           4
    15       79           1
    16        8           4
    16       12           4
    16       14           3
    16       15           3
    16       16           0
    16       32           4
    16       48           4
    16       80           2
    17        1           1
    17       17           1
    17       18           4
    17       19           2
    17       21           1
    17       25           4
    17       49           3
    17       81           1
    18        2           3
    18       17           0
    18       18           2
    18       20           2
    18       22           3
    18       26           4
    18       50           1
    18       82           3
    19        3           1
    19       17           3
    19       19           4
    19       20           1
    19       23           3
    19       27           1
    19       51           0
    19       83           3
    20        4           0
    20       18           1
    20       19           1
    20       20           2
    20       24           0
    20       28           3
    20       52           0
    20       84           0
    21        5           4
    21       17           3
    21       21           0
    21       22           1
    21       23           4
    21       29           2
    21       53           0
    21       85           3
    22        6           0
    22       18           3
    22       21           2
    22       22           1
    22       24           3
    22       30           0
    22       54           3
    22       86           1
    23        7           4
    23       19           3
    23       21           1
    23       23           1
    23       24           3
    23       31           4
    23       55           0
    23       87           1
    24        8           3
    24       20           2
    24       22           4
    24       23           1
    24       24           4
    24       32           1
    24       56           1
    24       88           1
    25        9           2
    25       17           2
    25       25           3
    25       26           1
    25       27           3
    25       29           0
    25       57           1
    25       89           2
    26       10           2
    26       18           0
    26       25           4
    26       26           4
    26       28           2
    26       30           1
    26       58           4
    26       90           0
    27       11           2
    27       19           3
    27       25           2
    27       27           0
    27       28           3
    27       31           3
    27       59           4
    27       91           2
    28       12           1
    28       20           1
    28       26           3
    28       27           0
    28       28           0
    28       32           3
    28       60           3
    28       92           2
    29       13           2
    29       21           1
    29       25           3
    29       29           0
    29       30           3
    29       31           2
    29       61           2
    29       93           1
    30       14           4
    30       22           0
    30       26           1
    30       29           4
    30       30           1
    30       32           3
    30       62           1
    30       94           2
    31       15           0
    31       23           2
    31       27           2
    31       29           0
    31       31           4
    31       32           1
    31       63           1
    31       95           2
    32       16           3
    32       24           2
    32       28           0
    32       30           3
    32       31           1
    32       32           3
    32       64           4
    32       96           4
    33        1           4
    33       33           1
    33       34           0
    33       35           0
    33       37           0
    33       41           3
    33       49           4
    33       97           0
    34        2           2
    34       33           2
    34       34           1
    34       36           2
    34       38           2
    34       42           0
    34       50           4
    34       98           2
    35        3           0
    35       33           3
    35       35           4
    35       36           1
    35       39           2
    35       43           1
    35       51           0
    35       99           3
    36        4           2
    36       34           4
    36       35           0
    36       36           4
    36       40           0
    36       44           4
    36       52           2
    36      100           1
    37        5           1
    37       33           4
    37       37           4
    37       38           3
    37       39           1
    37       45           3
    37       53           3
    37      101           4
    38        6           3
    38       34           2
    38       37           0
    38       38           1
    38       40           1
    38       46           0
    38       54           3
    38      102           3
    39        7           4
    39       35           0
    39       37           0
    39       39           4
    39       40           3
    39       47           0
    39       55           1
    39      103           4
    40        8           2
    40       36           4
    40       38           1
    40       39           2
    40       40           2
    40       48           2
    40       56           4
    40      104           1
    41        9           1
    41       33           4
    41       41           0
    41       42           4
    41       43           2
    41       45           0
    41       57           2
    41      105           3
    42       10           4
    42       34           4
    42       41           4
    42       42           4
    42       44           4
    42       46           1
    42       58           3
    42      106           1
    43       11           2
    43       35           4
    43       41           1
    43       43           3
    43       44           3
    43       47           3
    43       59           3
    43      107           3
    44       12           2
    44       36           1
    44       42           0
    44       43           0
    44       44           4
    44       48           3
    44       60           3
    44      108           3
    45       13           3
    45       37           3
    45       41           0
    45       45           1
    45       46           2
    45       47           2
    45       61           0
    45      109           1
    46       14           3
    46       38           4
    46       42           0
    46       45           3
    46       46           3
    46       48           4
    46       62           0
    46      110           2
    47       15           3
    47       39           1
    47       43           2
    47       45           2
    47       47           2
    47       48           3
    47       63           4
    47      111           0
    48       16           1
    48       40           0
    48       44           0
    48       46           4
    48       47           3
    48       48           1
    48       64           4
    48      112           2
    49       17           2
    49       33           2
    49       49           4
    49       50           1
    49       51           3
    49       53           0
    49       57           1
    49      113           3
    50       18           1
    50       34           1
    50       49           3
    50       50           2
    50       52           2
    50       54           4
    50       58           3
    50      114           2
    51       19           3
    51       35           3
    51       49           0
    51       51           4
    51       52           0
    51       55           0
    51       59           1
    51      115           4
    52       20           2
    52       36           3
    52       50           0
    52       51           2
    52       52           4
    52       56           4
    52       60           1
    52      116           4
    53       21           1
    53       37           0
    53       49           0
    53       53           0
    53       54           4
    53       55           3
    53       61           4
    53      117           3
    54       22           2
    54       38           0
    54       50           3
    54       53           0
    54       54           2
    54       56           0
    54       62           4
    54      118           4
    55       23           3
    55       39           4
    55       51           3
    55       53           3
    55       55           3
    55       56           0
    55       63           1
    55      119           2
    56       24           3
    56       40           0
    56       52           2
    56       54           4
    56       55           2
    56       56           4
    56       64           4
    56      120           0
    57       25           0
    57       41           1
    57       49           4
    57       57           1
    57       58           1
    57       59           1
    57       61           2
    57      121           4
    58       26           4
    58       42           2
    58       50           0
    58       57           4
    58       58           4
    58       60           4
    58       62           1
    58      122           0
    59       27           3
    59       43           2
    59       51           2
    59       57           0
    59       59           1
    59       60           0
    59       63           3
    59      123           1
    60       28           0
    60       44           4
    60       52           2
    60       58           2
    60       59           4
    60       60           2
    60       64           0
    60      124           2
    61       29           4
    61       45           4
    61       53           1
    61       57           3
    61       61           2
    61       62           2
    61       63           4
    61      125           2
    62       30           4
    62       46           1
    62       54           4
    62       58           4
    62       61           2
    62       62           2
    62       64           0
    62      126           4
    63       31           0
    63       47           2
    63       55           1
    63       59           2
    63       61           2
    63       63           2
    63       64           3
    63      127           1
    64       32           4
    64       48           0
    64       56           2
    64       60           0
    64       62           0
    64       63           2
    64       64           1
    64      128           3
    65        1           1
    65       65           1
    65       66           0
    65       67           3
    65       69           3
    65       73           0
    65       81           0
    65       97           0
    66        2           1
    66       65           4
    66       66           1
    66       68           1
    66       70           0
    66       74           0
    66       82           1
    66       98           1
    67        3           4
    67       65           1
    67       67           1
    67       68           1
    67       71           1
    67       75           1
    67       83           3
    67       99           3
    68        4           1
    68       66           1
    68       67           4
    68       68           3
    68       72           3
    68       76           3
    68       84           0
    68      100           2
    69        5           4
    69       65           3
    69       69           3
    69       70           1
    69       71           3
    69       77           4
    69       85           2
    69      101           0
    70        6           4
    70       66           4
    70       69           3
    70       70           2
    70       72           4
    70       78           2
    70       86           0
    70      102           0
    71        7           2
    71       67           4
    71       69           2
    71       71           2
    71       72           2
    71       79           4
    71       87           4
    71      103           3
    72        8           1
    72       68           3
    72       70           3
    72       71           4
    72       72           1
    72       80           2
    72       88           1
    72      104           2
    73        9           1
    73       65           2
    73       73           1
    73       74           4
    73       75           0
    73       77           4
    73       89           4
    73      105           4
    74       10           0
    74       66           4
    74       73           0
    74       74           4
    74       76           2
    74       78           0
    74       90           0
    74      106           2
    75       11           0
    75       67           4
    75       73           3
    75       75           1
    75       76           0
    75       79           2
    75       91           4
    75      107           2
    76       12           2
    76       68           3
    76       74           3
    76       75           3
    76       76           1
    76       80           4
    76       92           4
    76      108           3
    77       13           3
    77       69           4
    77       73           0
    77       77           2
    77       78           3
    77       79           1
    77       93           1
    77      109           3
    78       14           4
    78       70           3
    78       74           0
    78       77           1
    78       78           3
    78       80           2
    78       94           0
    78      110           4
    79       15           0
    79       71           2
    79       75           4
    79       77           2
    79       79           2
    79       80           0
    79       95           3
    79      111           4
    80       16           3
    80       72           2
    80       76           1
    80       78           2
    80       79           2
    80       80           1
    80       96           3
    80      112           2
    81       17           0
    81       65           0
    81       81           4
    81       82           3
    81       83           2
    81       85           1
    81       89           0
    81      113           1
    82       18           1
    82       66           1
    82       81           1
    82       82           0
    82       84           2
    82       86           3
    82       90           0
    82      114           3
    83       19           4
    83       67           4
    83       81           2
    83       83           4
    83       84           2
    83       87           1
    83       91           3
    83      115           1
    84       20           3
    84       68           3
    84       82           3
    84       83           4
    84       84           0
    84       88           0
    84       92           1
    84      116           3
    85       21           3
    85       69           2
    85       81           2
    85       85           4
    85       86           2
    85       87           4
    85       93           0
    85      117           1
    86       22           3
    86       70           0
    86       82           4
    86       85           4
    86       86           1
    86       88           2
    86       94           2
    86      118           2
    87       23           3
    87       71           2
    87       83           0
    87       85           0
    87       87           3
    87       88           3
    87       95           1
    87      119           3
    88       24           3
    88       72           2
    88       84           1
    88       86           0
    88       87           4
    88       88           4
    88       96           4
    88      120           0
    89       25           3
    89       73           3
    89       81           0
    89       89           2
    89       90           0
    89       91           4
    89       93           1
    89      121           2
    90       26           0
    90       74           1
    90       82           4
    90       89           3
    90       90           0
    90       92           3
    90       94           2
    90      122           4
    91       27           2
    91       75           3
    91       83           2
    91       89           4
    91       91           3
    91       92           3
    91       95           3
    91      123           3
    92       28           4
    92       76           2
    92       84           2
    92       90           2
    92       91           3
    92       92           4
    92       96           4
    92      124           0
    93       29           1
    93       77           2
    93       85           4
    93       89           0
    93       93           0
    93       94           1
    93       95           0
    93      125           1
    94       30           3
    94       78           4
    94       86           4
    94       90           1
    94       93           0
    94       94           2
    94       96           4
    94      126           3
    95       31           4
    95       79           3
    95       87           4
    95       91           3
    95       93           4
    95       95           0
    95       96           0
    95      127           4
    96       32           3
    96       80           4
    96       88           3
    96       92           0
    96       94           2
    96       95           1
    96       96           1
    96      128           1
    97       33           4
    97       65           4
    97       97           4
    97       98           2
    97       99           3
    97      101           1
    97      105           0
    97      113           1
    98       34           0
    98       66           0
    98       97           3
    98       98           4
    98      100           0
    98      102           0
    98      106           2
    98      114           1
    99       35           0
    99       67           0
    99       97           2
    99       99           3
    99      100           0
    99      103           4
    99      107           0
    99      115           0
   100       36           0
   100       68           2
   100       98           3
   100       99           4
   100      100           0
   100      104           4
   100      108           4
   100      116           2
   101       37           1
   101       69           3
   101       97           3
   101      101           4
   101      102           3
   101      103           0
   101      109           1
   101      117           0
   102       38           2
   102       70           0
   102       98           4
   102      101           1
   102      102           2
   102      104           3
   102      110           3
   102      118           1
   103       39           3
   103       71           4
   103       99           3
   103      101           2
   103      103           2
   103      104           2
   103      111           3
   103      119           0
   104       40           4
   104       72           0
   104      100           0
   104      102           4
   104      103           4
   104      104           0
   104      112           3
   104      120           3
   105       41           1
   105       73           3
   105       97           1
   105      105           1
   105      106           0
   105      107           2
   105      109           1
   105      121           4
   106       42           3
   106       74           0
   106       98           4
   106      105           3
   106      106           4
   106      108           3
   106      110           4
   106      122           1
   107       43           3
   107       75           0
   107       99           4
   107      105           4
   107      107           2
   107      108           1
   107      111           0
   107      123           3
   108       44           0
   108       76           0
   108      100           2
   108      106           0
   108      107           4
   108      108           1
   108      112           4
   108      124           0
   109       45           1
   109       77           4
   109      101           2
   109      105           2
   109      109           4
   109      110           2
   109      111           2
   109      125           3
   110       46           4
   110       78           1
   110      102           2
   110      106           3
   110      109           2
   110      110           3
   110      112           2
   110      126           3
   111       47           0
   111       79           3
   111      103           3
   111      107           1
   111      109           2
   111      111           2
   111      112           4
   111      127           0
   112       48           0
   112       80           0
   112      104           4
   112      108           4
   112      110           3
   112      111           3
   112      112           1
   112      128           4
   113       49           0
   113       81           1
   113       97           1
   113      113           1
   113      114           2
   113      115           2
   113      117           1
   113      121           4
   114       50           0
   114       82           0
   114       98           3
   114      113           4
   114      114           4
   114      116           4
   114      118           1
   114      122           4
   115       51           4
   115       83           1
   115       99           2
   115      113           2
   115      115           4
   115      116           3
   115      119           1
   115      123           4
   116       52           2
   116       84           1
   116      100           0
   116      114           0
   116      115           0
   116      116           0
   116      120           2
   116      124           1
   117       53           3
   117       85           4
   117      101           0
   117      113           0
   117      117           1
   117      118           2
   117      119           3
   117      125           1
   118       54           4
   118       86           3
   118      102           4
   118      114           3
   118      117           1
   118      118           1
   118      120           2
   118      126           3
   119       55           0
   119       87           0
   119      103           0
   119      115           0
   119      117           3
   119      119           3
   119      120           4
   119      127           0
   120       56           0
   120       88           3
   120      104           4
   120      116           0
   120      118           0
   120      119           0
   120      120           0
   120      128           4
   121       57           3
   121       89           2
   121      105           3
   121      113           3
   121      121           1
   121      122           3
   121      123           1
   121      125           4
   122       58           2
   122       90           1
   122      106           0
   122      114           4
   122      121           0
   122      122           3
   122      124           1
   122      126           4
   123       59           3
   123       91           4
   123      107           4
   123      115           0
   123      121           1
   123      123           4
   123      124           0
   123      127           3
   124       60           2
   124       92           0
   124      108           3
   124      116           1
   124      122           3
   124      123           0
   124      124           3
   124      128           2
   125       61           4
   125       93           0
   125      109           3
   125      117           2
   125      121           4
   125      125           0
   125      126           2
   125      127           1
   126       62           4
   126       94           1
   126      110           0
   126      118           2
   126      122           2
   126      125           3
   126      126           3
   126      128           2
   127       63           4
   127       95           4
   127      111           0
   127      119           4
   127      123           3
   127      125           2
   127      127           1
   127      128           4
   128       64           0
   128       96           4
   128      112           1
   128      120           4
   128      124           0
   128      126           0
   128      127           0
   128      128           4
